\ Model QCP
\ LP format - for model browsing. Use MPS format to capture full model detail.
Minimize
  z + 4 y
Subject To
 Cut_0: z + [ ] >= 1138
 Cut_1: z + [ 1.6 y ^2 ] >= 1529.2
 Cut_2: z + [ 0.8551724137931034 y ^2 ] >= 1406.386206896552
Bounds
 1138 <= z <= 1278
 12.52996408614167 <= y <= 17.6635217326557
End
